(set-logic QF_UF)
(declare-fun A0 () Bool)
(declare-fun A1 () Bool)
(declare-fun A4 () Bool)
(declare-fun A5 () Bool)
(declare-fun A6 () Bool)
(declare-fun A7 () Bool)
(declare-fun A8 () Bool)
(declare-fun A9 () Bool)
(declare-fun A10 () Bool)
(declare-fun A12 () Bool)
(declare-fun A13 () Bool)
(declare-fun A14 () Bool)
(declare-fun A15 () Bool)
(declare-fun A16 () Bool)
(declare-fun A17 () Bool)
(declare-fun A18 () Bool)
(declare-fun A19 () Bool)
(declare-fun A20 () Bool)
(declare-fun A21 () Bool)
(declare-fun A22 () Bool)
(declare-fun A23 () Bool)
(declare-fun A24 () Bool)
(declare-fun A25 () Bool)
(declare-fun A26 () Bool)
(declare-fun A27 () Bool)
(declare-fun A28 () Bool)
(declare-fun A29 () Bool)
(assert (let ((.def_0 (not A1))) (let ((.def_1 (not A17))) (let ((.def_2 (or .def_1 .def_0))) (let ((.def_3 (not A19))) (let ((.def_4 (or A23 .def_3))) (let ((.def_5 (= .def_4 .def_2))) (let ((.def_6 (or A13 A28))) (let ((.def_7 (not A9))) (let ((.def_8 (or A0 .def_7))) (let ((.def_9 (not .def_8))) (let ((.def_10 (= .def_9 .def_6))) (let ((.def_11 (not .def_10))) (let ((.def_12 (or .def_11 .def_5))) (let ((.def_13 (not A16))) (let ((.def_14 (and .def_13 A1))) (let ((.def_15 (or A8 .def_1))) (let ((.def_16 (or .def_15 .def_14))) (let ((.def_17 (not .def_16))) (let ((.def_18 (not A6))) (let ((.def_19 (not A15))) (let ((.def_20 (or .def_19 .def_18))) (let ((.def_21 (not .def_20))) (let ((.def_22 (not A20))) (let ((.def_23 (= A1 .def_22))) (let ((.def_24 (not .def_23))) (let ((.def_25 (and .def_24 .def_21))) (let ((.def_26 (not .def_25))) (let ((.def_27 (or .def_26 .def_17))) (let ((.def_28 (and .def_27 .def_12))) (let ((.def_29 (not .def_28))) (let ((.def_30 (= .def_0 A16))) (let ((.def_31 (not .def_30))) (let ((.def_32 (not A29))) (let ((.def_33 (or .def_3 .def_32))) (let ((.def_34 (not .def_33))) (let ((.def_35 (and .def_34 .def_31))) (let ((.def_36 (not .def_35))) (let ((.def_37 (not A7))) (let ((.def_38 (or A7 .def_37))) (let ((.def_39 (or A28 A23))) (let ((.def_40 (not .def_39))) (let ((.def_41 (or .def_40 .def_38))) (let ((.def_42 (not .def_41))) (let ((.def_43 (and .def_42 .def_36))) (let ((.def_44 (not A14))) (let ((.def_45 (not A22))) (let ((.def_46 (and .def_45 .def_44))) (let ((.def_47 (not A27))) (let ((.def_48 (and .def_47 A19))) (let ((.def_49 (not .def_48))) (let ((.def_50 (or .def_49 .def_46))) (let ((.def_51 (not .def_50))) (let ((.def_52 (and A20 A15))) (let ((.def_53 (and .def_47 A26))) (let ((.def_54 (not .def_53))) (let ((.def_55 (and .def_54 .def_52))) (let ((.def_56 (not .def_55))) (let ((.def_57 (or .def_56 .def_51))) (let ((.def_58 (not .def_57))) (let ((.def_59 (and .def_58 .def_43))) (let ((.def_60 (and .def_59 .def_29))) (let ((.def_61 (not .def_60))) (let ((.def_62 (or A12 A24))) (let ((.def_63 (not A0))) (let ((.def_64 (not A8))) (let ((.def_65 (and .def_64 .def_63))) (let ((.def_66 (not .def_65))) (let ((.def_67 (and .def_66 .def_62))) (let ((.def_68 (not .def_67))) (let ((.def_69 (not A18))) (let ((.def_70 (and .def_69 A16))) (let ((.def_71 (not A10))) (let ((.def_72 (and .def_71 A4))) (let ((.def_73 (or .def_72 .def_70))) (let ((.def_74 (or .def_73 .def_68))) (let ((.def_75 (and .def_19 A15))) (let ((.def_76 (not A25))) (let ((.def_77 (and .def_44 .def_76))) (let ((.def_78 (not .def_77))) (let ((.def_79 (or .def_78 .def_75))) (let ((.def_80 (not .def_79))) (let ((.def_81 (and .def_63 A7))) (let ((.def_82 (and .def_76 .def_44))) (let ((.def_83 (not .def_82))) (let ((.def_84 (or .def_83 .def_81))) (let ((.def_85 (not .def_84))) (let ((.def_86 (and .def_85 .def_80))) (let ((.def_87 (or .def_86 .def_74))) (let ((.def_88 (not .def_87))) (let ((.def_89 (= .def_3 A8))) (let ((.def_90 (not A23))) (let ((.def_91 (or .def_90 .def_32))) (let ((.def_92 (not .def_91))) (let ((.def_93 (and .def_92 .def_89))) (let ((.def_94 (or A12 A9))) (let ((.def_95 (and A0 .def_90))) (let ((.def_96 (not .def_95))) (let ((.def_97 (and .def_96 .def_94))) (let ((.def_98 (not .def_97))) (let ((.def_99 (and .def_98 .def_93))) (let ((.def_100 (not .def_99))) (let ((.def_101 (or A5 A13))) (let ((.def_102 (or A21 A12))) (let ((.def_103 (or .def_102 .def_101))) (let ((.def_104 (not .def_103))) (let ((.def_105 (or .def_64 A27))) (let ((.def_106 (not .def_105))) (let ((.def_107 (or A27 A16))) (let ((.def_108 (or .def_107 .def_106))) (let ((.def_109 (not .def_108))) (let ((.def_110 (= .def_109 .def_104))) (let ((.def_111 (or .def_110 .def_100))) (let ((.def_112 (or .def_111 .def_88))) (let ((.def_113 (not .def_112))) (let ((.def_114 (or .def_113 .def_61))) (let ((.def_115 (not .def_114))) .def_115)))))))))))))))))))))))))))))))))))))))))))))))))))))))))))))))))))))))))))))))))))))))))))))))))))))))))))))))))))))
(check-sat)
